c DCNF-Autarky [version 0.0.1]. 
c Copyright (c) 2018-2019 Swansea University. 
c 
c Input QBF/DQBF path: MinBiere18//texas.ifetch1^1.E-d3.qdimacs
c Output SAT Translation Path: /tmp/texas.ifetch1^1.E-d3.qdimacs-dcnfAutarky.dimacs
c Input Clause Count (tautology free): 406
c
c Performing E1-Autarky iteration.
c Remaining clauses count after E-Reduction: 406
c
c Performing A1-Autarky iteration.
c Running Lingeling ... 
c
c Remaining clauses count after A-Reduction: 375
c
c Performing E1-Autarky iteration.
c Remaining clauses count after E-Reduction: 375
c
c Performing A1-Autarky iteration.
c Running Lingeling ... 
c
c Remaining clauses count after A-Reduction: 375
c
c Input Parameter (command line, file): 
c input filename   MinBiere18//texas.ifetch1^1.E-d3.qdimacs
c output filename  /tmp/texas.ifetch1^1.E-d3.qdimacs-dcnfAutarky.dimacs
c autarky level    1
c conformity level 0
c encoding type    2
c no.of var        171
c no.of clauses    406
c no.of taut cls   0
c 
c Output Parameters: 
c remaining no.of clauses  375
c
c filename pn pc autarky ntaut rpa rpe rpcdiff result
c "MinBiere18//texas.ifetch1^1.E-d3.qdimacs" 171 406 "E1+A1" 0 6 151 31 "RED" 
p cnf 171 375
e 1 2 5 6 7 8 16 17 22 28 29 32 33 36 37 40 44 49 56 67 68 78 87 88 89 96 97 98 99 141 0
a 90 113 114 115 116 140 0
e 3 4 9 10 11 12 13 14 15 18 19 20 21 23 24 25 26 27 30 31 34 35 38 39 41 42 43 45 46 47 48 50 51 52 53 54 55 57 58 59 60 61 62 63 64 65 66 69 70 71 72 73 74 75 76 77 79 80 81 82 83 84 85 86 91 92 93 94 95 100 101 102 103 104 105 106 107 108 109 110 111 112 117 118 119 120 121 122 123 124 125 126 127 128 129 130 131 132 133 134 135 136 137 138 139 142 143 144 145 146 147 148 149 150 151 152 153 154 155 156 157 158 159 160 161 162 163 164 165 166 167 168 169 170 171 0
-3 1 0
-3 -2 0
3 -1 2 0
-4 1 0
-4 -3 0
4 -1 3 0
-18 17 0
-18 16 0
18 -17 -16 0
-19 17 0
-19 -18 0
19 -17 18 0
-20 -16 0
-20 -19 0
20 16 19 0
-21 -16 0
-21 -20 0
21 16 20 0
-23 16 0
-23 22 0
23 -16 -22 0
-24 22 0
-24 -23 0
24 -22 23 0
-25 -16 0
-25 -24 0
25 16 24 0
-26 -16 0
-26 -25 0
26 16 25 0
-27 4 0
-27 -16 0
27 -4 16 0
-30 -28 0
-30 29 0
30 28 -29 0
-31 -28 0
-31 -30 0
31 28 30 0
-34 -33 0
-34 32 0
34 33 -32 0
-35 32 0
-35 -34 0
35 -32 34 0
-38 36 0
-38 -37 0
38 -36 37 0
-39 36 0
-39 -38 0
39 -36 38 0
-41 37 0
-41 40 0
41 -37 -40 0
-42 40 0
-42 -41 0
42 -40 41 0
-43 -39 0
-43 -42 0
43 39 42 0
-45 -37 0
-45 -33 0
45 37 33 0
-46 45 0
-46 44 0
46 -45 -44 0
-47 44 0
-47 -46 0
47 -44 46 0
-48 43 0
-48 -47 0
48 -43 47 0
-50 37 0
-50 49 0
50 -37 -49 0
-51 49 0
-51 -50 0
51 -49 50 0
-52 33 0
-52 51 0
52 -33 -51 0
-53 51 0
-53 -52 0
53 -51 52 0
-54 48 0
-54 -53 0
54 -48 53 0
-55 -35 0
-55 54 0
55 35 -54 0
-57 -37 0
-57 33 0
57 37 -33 0
-58 56 0
-58 57 0
58 -56 -57 0
-59 56 0
-59 -58 0
59 -56 58 0
-60 55 0
-60 -59 0
60 -55 59 0
-61 -60 0
-61 31 0
61 60 -31 0
-62 31 0
-62 -61 0
62 -31 61 0
-63 -27 0
-63 62 0
63 27 -62 0
-64 62 0
-64 -63 0
64 -62 63 0
-65 27 0
-65 -64 0
65 -27 64 0
-66 27 0
-66 -65 0
66 -27 65 0
-69 16 0
-69 68 0
69 -16 -68 0
-70 68 0
-70 -69 0
70 -68 69 0
-71 -16 0
-71 -70 0
71 16 70 0
-72 -16 0
-72 -71 0
72 16 71 0
-73 -72 0
-73 -26 0
73 72 26 0
-74 -66 0
-74 -21 0
74 66 21 0
-75 -21 0
-75 -74 0
75 21 74 0
-76 -4 0
-76 75 0
76 4 -75 0
-77 75 0
-77 -76 0
77 -75 76 0
-79 78 0
-79 -27 0
79 -78 27 0
-80 78 0
-80 -79 0
80 -78 79 0
-81 27 0
-81 -80 0
81 -27 80 0
-82 27 0
-82 -81 0
82 -27 81 0
-83 82 0
-83 77 0
83 -82 -77 0
-84 77 0
-84 -83 0
84 -77 83 0
-85 -84 0
-85 -73 0
85 84 73 0
-86 -73 0
-86 -85 0
86 73 85 0
-91 89 0
-91 -90 0
91 -89 90 0
-92 -89 0
-92 90 0
92 89 -90 0
-93 -91 0
-93 -92 0
93 91 92 0
-94 -88 0
-94 93 0
94 88 -93 0
-95 -86 0
-95 94 0
95 86 -94 0
-100 98 0
-100 -99 0
100 -98 99 0
-101 98 0
-101 -100 0
101 -98 100 0
-102 -101 0
-102 88 0
102 101 -88 0
-103 -101 0
-103 -102 0
103 101 102 0
-104 87 0
-104 103 0
104 -87 -103 0
-105 103 0
-105 -104 0
105 -103 104 0
-106 82 0
-106 105 0
106 -82 -105 0
-107 105 0
-107 -106 0
107 -105 106 0
-108 -97 0
-108 -107 0
108 97 107 0
-109 -97 0
-109 -108 0
109 97 108 0
-110 -96 0
-110 -109 0
110 96 109 0
-111 67 0
-111 -110 0
111 -67 110 0
-112 -110 0
-112 -111 0
112 110 111 0
-117 115 0
-117 -116 0
117 -115 116 0
-118 115 0
-118 -117 0
118 -115 117 0
-119 -114 0
-119 118 0
119 114 -118 0
-120 -114 0
-120 -119 0
120 114 119 0
-121 -113 0
-121 -120 0
121 113 120 0
-122 112 0
-122 121 0
122 -112 -121 0
-123 -112 0
-123 -121 0
123 112 121 0
-124 -122 0
-124 -123 0
124 122 123 0
-125 95 0
-125 124 0
125 -95 -124 0
-126 97 0
-126 107 0
126 -97 -107 0
-127 -96 0
-127 126 0
127 96 -126 0
-128 -67 0
-128 127 0
128 67 -127 0
-129 114 0
-129 -118 0
129 -114 118 0
-130 -113 0
-130 129 0
130 113 -129 0
-131 -128 0
-131 130 0
131 128 -130 0
-132 128 0
-132 -130 0
132 -128 130 0
-133 -131 0
-133 -132 0
133 131 132 0
-134 125 0
-134 133 0
134 -125 -133 0
-135 -88 0
-135 134 0
135 88 -134 0
-136 -72 0
-136 135 0
136 72 -135 0
-137 -87 0
-137 136 0
137 87 -136 0
-138 -82 0
-138 137 0
138 82 -137 0
-139 -86 0
-139 138 0
139 86 -138 0
-142 -87 0
-142 -141 0
142 87 141 0
-143 82 0
-143 -142 0
143 -82 142 0
-144 -142 0
-144 -143 0
144 142 143 0
-145 67 0
-145 144 0
145 -67 -144 0
-146 144 0
-146 -145 0
146 -144 145 0
-147 -140 0
-147 146 0
147 140 -146 0
-148 140 0
-148 -146 0
148 -140 146 0
-149 -147 0
-149 -148 0
149 147 148 0
-150 139 0
-150 149 0
150 -139 -149 0
-151 -67 0
-151 150 0
151 67 -150 0
-152 4 0
-152 151 0
152 -4 -151 0
-153 -66 0
-153 152 0
153 66 -152 0
-154 -26 0
-154 153 0
154 26 -153 0
-155 -21 0
-155 154 0
155 21 -154 0
-156 4 0
-156 -107 0
156 -4 107 0
-157 67 0
-157 -156 0
157 -67 156 0
-158 -156 0
-158 -157 0
158 156 157 0
-159 118 0
-159 158 0
159 -118 -158 0
-160 -118 0
-160 -158 0
160 118 158 0
-161 -159 0
-161 -160 0
161 159 160 0
-162 155 0
-162 161 0
162 -155 -161 0
-163 -67 0
-163 -107 0
163 67 107 0
-164 -67 0
-164 -163 0
164 67 163 0
-165 118 0
-165 164 0
165 -118 -164 0
-166 -118 0
-166 -164 0
166 118 164 0
-167 -165 0
-167 -166 0
167 165 166 0
-168 162 0
-168 167 0
168 -162 -167 0
